certificates/rado_a10_c154_N28.cnf
c Rad2 upper bound instance: x1 + 10*x2 - x3 = 154, interval [1,28]
p cnf 28 156
1 7 16 0
-1 -7 -16 0
1 17 0
-1 -17 0
1 18 27 0
-1 -18 -27 0
2 8 16 0
-2 -8 -16 0
2 17 18 0
-2 -17 -18 0
2 18 28 0
-2 -18 -28 0
3 9 16 0
-3 -9 -16 0
3 17 19 0
-3 -17 -19 0
4 10 16 0
-4 -10 -16 0
4 17 20 0
-4 -17 -20 0
1 5 15 0
-1 -5 -15 0
5 11 16 0
-5 -11 -16 0
5 17 21 0
-5 -17 -21 0
2 6 15 0
-2 -6 -15 0
6 12 16 0
-6 -12 -16 0
6 17 22 0
-6 -17 -22 0
3 7 15 0
-3 -7 -15 0
7 13 16 0
-7 -13 -16 0
7 17 23 0
-7 -17 -23 0
4 8 15 0
-4 -8 -15 0
8 14 16 0
-8 -14 -16 0
8 17 24 0
-8 -17 -24 0
5 9 15 0
-5 -9 -15 0
9 15 16 0
-9 -15 -16 0
9 17 25 0
-9 -17 -25 0
6 10 15 0
-6 -10 -15 0
10 16 0
-10 -16 0
10 17 26 0
-10 -17 -26 0
7 11 15 0
-7 -11 -15 0
11 16 17 0
-11 -16 -17 0
11 17 27 0
-11 -17 -27 0
8 12 15 0
-8 -12 -15 0
12 16 18 0
-12 -16 -18 0
12 17 28 0
-12 -17 -28 0
9 13 15 0
-9 -13 -15 0
13 16 19 0
-13 -16 -19 0
10 14 15 0
-10 -14 -15 0
14 16 20 0
-14 -16 -20 0
1 14 15 0
-1 -14 -15 0
11 15 0
-11 -15 0
15 16 21 0
-15 -16 -21 0
2 14 16 0
-2 -14 -16 0
12 15 16 0
-12 -15 -16 0
16 22 0
-16 -22 0
3 14 17 0
-3 -14 -17 0
13 15 17 0
-13 -15 -17 0
16 17 23 0
-16 -17 -23 0
4 14 18 0
-4 -14 -18 0
14 15 18 0
-14 -15 -18 0
16 18 24 0
-16 -18 -24 0
5 14 19 0
-5 -14 -19 0
15 19 0
-15 -19 0
16 19 25 0
-16 -19 -25 0
6 14 20 0
-6 -14 -20 0
15 16 20 0
-15 -16 -20 0
16 20 26 0
-16 -20 -26 0
7 14 21 0
-7 -14 -21 0
15 17 21 0
-15 -17 -21 0
16 21 27 0
-16 -21 -27 0
8 14 22 0
-8 -14 -22 0
15 18 22 0
-15 -18 -22 0
16 22 28 0
-16 -22 -28 0
9 14 23 0
-9 -14 -23 0
15 19 23 0
-15 -19 -23 0
10 14 24 0
-10 -14 -24 0
15 20 24 0
-15 -20 -24 0
1 13 25 0
-1 -13 -25 0
11 14 25 0
-11 -14 -25 0
15 21 25 0
-15 -21 -25 0
2 13 26 0
-2 -13 -26 0
12 14 26 0
-12 -14 -26 0
15 22 26 0
-15 -22 -26 0
3 13 27 0
-3 -13 -27 0
13 14 27 0
-13 -14 -27 0
15 23 27 0
-15 -23 -27 0
4 13 28 0
-4 -13 -28 0
14 28 0
-14 -28 0
15 24 28 0
-15 -24 -28 0
