certificates/rado_a10_c154_N28.drat
15 -27 14 0
-27 14 0
d 15 -27 14 0
-28 0
14 0
-15 27 0
27 0
-13 0
4 0
-18 0
2 0
-16 0
10 0
19 0
22 0
24 0
7 0
12 0
-15 0
0
